solution status: optimal solution found
objective value:                     205924.190207538
d11(0,0)                                            1 	(obj:0)
d11(1,1)                                            1 	(obj:0)
d11(2,3)                                            1 	(obj:0)
d11(2,5)                                            1 	(obj:0)
d11(3,7)                                            1 	(obj:0)
d11(3,9)                                            1 	(obj:0)
d11(3,11)                                           1 	(obj:0)
d11(3,13)                                           1 	(obj:0)
d11(4,15)                                           1 	(obj:0)
d11(4,17)                                           1 	(obj:0)
d11(4,19)                                           1 	(obj:0)
d11(4,21)                                           1 	(obj:0)
d11(4,23)                                           1 	(obj:0)
d11(4,24)                                           1 	(obj:0)
d11(4,25)                                           1 	(obj:0)
d11(4,27)                                           1 	(obj:0)
d11(4,29)                                           1 	(obj:0)
d11(4,30)                                           1 	(obj:0)
d11(5,31)                                           1 	(obj:0)
d11(5,32)                                           1 	(obj:0)
d11(5,33)                                           1 	(obj:0)
d11(5,34)                                           1 	(obj:0)
d11(5,35)                                           1 	(obj:0)
d11(5,36)                                           1 	(obj:0)
d11(5,37)                                           1 	(obj:0)
d11(5,38)                                           1 	(obj:0)
d11(5,39)                                           1 	(obj:0)
d11(5,40)                                           1 	(obj:0)
d11(5,41)                                           1 	(obj:0)
d11(5,42)                                           1 	(obj:0)
d11(5,43)                                           1 	(obj:0)
d11(5,44)                                           1 	(obj:0)
d11(5,45)                                           1 	(obj:0)
d11(5,47)                                           1 	(obj:0)
d11(5,48)                                           1 	(obj:0)
d11(5,49)                                           1 	(obj:0)
d11(5,51)                                           1 	(obj:0)
d11(5,52)                                           1 	(obj:0)
d11(5,53)                                           1 	(obj:0)
d11(5,54)                                           1 	(obj:0)
d11(5,55)                                           1 	(obj:0)
d11(5,56)                                           1 	(obj:0)
d11(5,57)                                           1 	(obj:0)
d11(5,58)                                           1 	(obj:0)
d11(5,59)                                           1 	(obj:0)
d11(5,60)                                           1 	(obj:0)
d11(5,61)                                           1 	(obj:0)
d11(5,62)                                           1 	(obj:0)
d11(6,63)                                           1 	(obj:0)
d11(6,65)                                           1 	(obj:0)
d11(6,67)                           0.999999999999994 	(obj:0)
d11(6,69)                           0.999999999999994 	(obj:0)
d11(6,71)                           0.999999999999994 	(obj:0)
d11(6,73)                           0.999999999999994 	(obj:0)
d11(6,75)                                           1 	(obj:0)
d11(6,77)                                           1 	(obj:0)
d11(6,79)                           0.999999999999994 	(obj:0)
d11(6,81)                           0.999999999999994 	(obj:0)
d11(6,83)                                           1 	(obj:0)
d11(6,85)                                           1 	(obj:0)
d11(6,87)                                           1 	(obj:0)
d11(6,89)                           0.999999999999994 	(obj:0)
d11(6,91)                           0.999999999999994 	(obj:0)
d11(6,93)                                           1 	(obj:0)
d11(6,95)                           0.999999999999994 	(obj:0)
d11(6,97)                           0.999999999999994 	(obj:0)
d11(6,99)                           0.999999999999994 	(obj:0)
d11(6,101)                                          1 	(obj:0)
d11(6,103)                          0.999999999999994 	(obj:0)
d11(6,105)                          0.999999999999994 	(obj:0)
d11(6,107)                          0.999999999999994 	(obj:0)
d11(6,109)                          0.999999999999994 	(obj:0)
d11(6,111)                                          1 	(obj:0)
d11(6,113)                          0.999999999999994 	(obj:0)
d11(6,115)                                          1 	(obj:0)
d11(6,117)                          0.999999999999994 	(obj:0)
d11(6,119)                                          1 	(obj:0)
d11(6,121)                          0.999999999999994 	(obj:0)
d11(6,123)                                          1 	(obj:0)
d11(6,125)                                          1 	(obj:0)
d12(1,2)                                            1 	(obj:0)
d12(2,6)                                            1 	(obj:0)
d12(3,8)                                            1 	(obj:0)
d12(3,10)                                           1 	(obj:0)
d12(3,12)                                           1 	(obj:0)
d12(3,14)                                           1 	(obj:0)
d12(6,64)                                           1 	(obj:0)
d12(6,66)                                           1 	(obj:0)
d12(6,68)                                           1 	(obj:0)
d12(6,70)                                           1 	(obj:0)
d12(6,72)                                           1 	(obj:0)
d12(6,74)                                           1 	(obj:0)
d12(6,76)                                           1 	(obj:0)
d12(6,78)                                           1 	(obj:0)
d12(6,80)                                           1 	(obj:0)
d12(6,82)                                           1 	(obj:0)
d12(6,84)                                           1 	(obj:0)
d12(6,86)                                           1 	(obj:0)
d12(6,88)                                           1 	(obj:0)
d12(6,90)                                           1 	(obj:0)
d12(6,92)                                           1 	(obj:0)
d12(6,94)                                           1 	(obj:0)
d12(6,96)                                           1 	(obj:0)
d12(6,98)                                           1 	(obj:0)
d12(6,100)                                          1 	(obj:0)
d12(6,102)                                          1 	(obj:0)
d12(6,104)                                          1 	(obj:0)
d12(6,106)                                          1 	(obj:0)
d12(6,108)                                          1 	(obj:0)
d12(6,110)                                          1 	(obj:0)
d12(6,112)                                          1 	(obj:0)
d12(6,114)                                          1 	(obj:0)
d12(6,116)                                          1 	(obj:0)
d12(6,118)                                          1 	(obj:0)
d12(6,120)                                          1 	(obj:0)
d12(6,122)                                          1 	(obj:0)
d12(6,124)                                          1 	(obj:0)
d12(6,126)                                          1 	(obj:0)
d21(4,15)                                           1 	(obj:0)
d21(5,31)                                           1 	(obj:0)
d21(5,32)                                           1 	(obj:0)
d21(5,33)                                           1 	(obj:0)
d21(5,34)                                           1 	(obj:0)
d21(5,35)                                           1 	(obj:0)
d21(5,36)                                           1 	(obj:0)
d21(5,37)                                           1 	(obj:0)
d21(5,39)                                           1 	(obj:0)
d21(5,40)                                           1 	(obj:0)
d21(5,41)                                           1 	(obj:0)
d21(5,43)                                           1 	(obj:0)
d21(5,47)                                           1 	(obj:0)
d21(5,48)                                           1 	(obj:0)
d21(5,49)                                           1 	(obj:0)
d21(5,51)                                           1 	(obj:0)
d21(5,55)                                           1 	(obj:0)
d21(6,63)                                           1 	(obj:0)
d21(6,64)                                           1 	(obj:0)
d21(6,65)                                           1 	(obj:0)
d21(6,66)                                           1 	(obj:0)
d21(6,67)                                           1 	(obj:0)
d21(6,68)                                           1 	(obj:0)
d21(6,69)                                           1 	(obj:0)
d21(6,70)                                           1 	(obj:0)
d21(6,71)                                           1 	(obj:0)
d21(6,72)                                           1 	(obj:0)
d21(6,73)                                           1 	(obj:0)
d21(6,74)                                           1 	(obj:0)
d21(6,75)                                           1 	(obj:0)
d21(6,76)                                           1 	(obj:0)
d21(6,79)                                           1 	(obj:0)
d21(6,80)                                           1 	(obj:0)
d21(6,81)                                           1 	(obj:0)
d21(6,82)                                           1 	(obj:0)
d21(6,83)                                           1 	(obj:0)
d21(6,84)                                           1 	(obj:0)
d21(6,87)                                           1 	(obj:0)
d21(6,88)                                           1 	(obj:0)
d21(6,89)                                           1 	(obj:0)
d21(6,91)                                           1 	(obj:0)
d21(6,95)                                           1 	(obj:0)
d21(6,96)                                           1 	(obj:0)
d21(6,97)                                           1 	(obj:0)
d21(6,98)                                           1 	(obj:0)
d21(6,99)                                           1 	(obj:0)
d21(6,100)                                          1 	(obj:0)
d21(6,103)                                          1 	(obj:0)
d21(6,104)                                          1 	(obj:0)
d21(6,105)                                          1 	(obj:0)
d21(6,107)                                          1 	(obj:0)
d21(6,111)                                          1 	(obj:0)
d21(6,112)                                          1 	(obj:0)
d21(6,113)                                          1 	(obj:0)
d21(6,115)                                          1 	(obj:0)
d21(6,119)                                          1 	(obj:0)
y2(6,100)                            1385.48851144285 	(obj:0)
y2(6,102)                            1385.48851144285 	(obj:0)
y2(6,104)                            1385.48851144285 	(obj:0)
y2(6,106)                            1385.48851144285 	(obj:0)
y2(6,108)                            1385.48851144285 	(obj:0)
y2(6,110)                            1385.48851144285 	(obj:0)
y2(6,112)                            1385.48851144285 	(obj:0)
y2(6,114)                            1385.48851144285 	(obj:0)
y2(6,116)                            1385.48851144285 	(obj:0)
y2(6,118)                            1385.48851144285 	(obj:0)
y2(6,120)                            1385.48851144285 	(obj:0)
y2(6,122)                            1385.48851144285 	(obj:0)
y2(6,124)                            1385.48851144285 	(obj:0)
y2(6,126)                            1385.48851144285 	(obj:0)
STE(1,1)                             14409.4918035004 	(obj:0)
STE(0,0)                                        15750 	(obj:0)
STE(1,2)                             15734.5700061139 	(obj:0)
STE(2,3)                             11670.4299938925 	(obj:0)
STE(2,4)                             13149.4918035004 	(obj:0)
STE(2,5)                              12995.508196506 	(obj:0)
STE(2,6)                             14474.5700061138 	(obj:0)
STE(3,7)                              10329.921797393 	(obj:0)
STE(3,8)                             11655.0000000065 	(obj:0)
STE(3,9)                             11808.9836070008 	(obj:0)
STE(3,10)                            13134.0618096143 	(obj:0)
STE(3,11)                            11655.0000000065 	(obj:0)
STE(3,12)                              12980.07820262 	(obj:0)
STE(3,13)                            13134.0618096143 	(obj:0)
STE(3,14)                            14459.1400122278 	(obj:0)
STE(4,15)                            7411.67189850414 	(obj:0)
STE(4,16)                            9069.92179739297 	(obj:0)
STE(4,17)                            8736.75010111765 	(obj:0)
STE(4,18)                            10395.0000000065 	(obj:0)
STE(4,19)                            8890.73370811198 	(obj:0)
STE(4,20)                            10548.9836070008 	(obj:0)
STE(4,21)                            10215.8119107255 	(obj:0)
STE(4,22)                            11874.0618096143 	(obj:0)
STE(4,23)                            8736.75010111766 	(obj:0)
STE(4,24)                            10395.0000000065 	(obj:0)
STE(4,25)                            10061.8283037312 	(obj:0)
STE(4,26)                              11720.07820262 	(obj:0)
STE(4,27)                            10215.8119107254 	(obj:0)
STE(4,28)                            11874.0618096143 	(obj:0)
STE(4,29)                            11540.8901133389 	(obj:0)
STE(4,30)                            13199.1400122278 	(obj:0)
STE(5,31)                            4493.42199961529 	(obj:0)
STE(5,32)                            6151.67189850414 	(obj:0)
STE(5,33)                            6151.67189850412 	(obj:0)
STE(5,34)                            7809.92179739297 	(obj:0)
STE(5,35)                             5818.5002022288 	(obj:0)
STE(5,36)                            7476.75010111765 	(obj:0)
STE(5,37)                            7476.75010111763 	(obj:0)
STE(5,38)                            9135.00000000648 	(obj:0)
STE(5,39)                            5972.48380922314 	(obj:0)
STE(5,40)                            7630.73370811198 	(obj:0)
STE(5,41)                            7630.73370811197 	(obj:0)
STE(5,42)                            9288.98360700087 	(obj:0)
STE(5,43)                            7297.56201183665 	(obj:0)
STE(5,44)                            8955.81191072549 	(obj:0)
STE(5,45)                            8955.81191072548 	(obj:0)
STE(5,46)                            10614.0618096143 	(obj:0)
STE(5,47)                            5818.50020222881 	(obj:0)
STE(5,48)                            7476.75010111766 	(obj:0)
STE(5,49)                            7476.75010111763 	(obj:0)
STE(5,50)                            9135.00000000648 	(obj:0)
STE(5,51)                            7143.57840484232 	(obj:0)
STE(5,52)                            8801.82830373117 	(obj:0)
STE(5,53)                            8801.82830373115 	(obj:0)
STE(5,54)                              10460.07820262 	(obj:0)
STE(5,55)                            7297.56201183658 	(obj:0)
STE(5,56)                             8955.8119107254 	(obj:0)
STE(5,57)                            8955.81191072541 	(obj:0)
STE(5,58)                            10614.0618096142 	(obj:0)
STE(5,59)                            8622.64021445009 	(obj:0)
STE(5,60)                            10280.8901133389 	(obj:0)
STE(5,61)                            10280.8901133389 	(obj:0)
STE(5,62)                            11939.1400122278 	(obj:0)
STE(6,63)                            3233.42199960879 	(obj:0)
STE(6,64)                              4549.636085486 	(obj:0)
STE(6,65)                            4891.67189849766 	(obj:0)
STE(6,66)                            6207.88598437484 	(obj:0)
STE(6,67)                            4891.67189850412 	(obj:0)
STE(6,68)                            6207.88598437483 	(obj:0)
STE(6,69)                            6549.92179739297 	(obj:0)
STE(6,70)                            7866.13588326367 	(obj:0)
STE(6,71)                            4558.50020222881 	(obj:0)
STE(6,72)                            5874.71428809951 	(obj:0)
STE(6,73)                            6216.75010111765 	(obj:0)
STE(6,74)                            7532.96418698835 	(obj:0)
STE(6,75)                            6216.75010111115 	(obj:0)
STE(6,76)                            7532.96418698834 	(obj:0)
STE(6,77)                                        7875 	(obj:0)
STE(6,78)                            9191.21408587718 	(obj:0)
STE(6,79)                            4712.48380922314 	(obj:0)
STE(6,80)                            6028.69789509384 	(obj:0)
STE(6,81)                            6370.73370811198 	(obj:0)
STE(6,82)                            7686.94779398269 	(obj:0)
STE(6,83)                            6370.73370810552 	(obj:0)
STE(6,84)                            7686.94779398267 	(obj:0)
STE(6,85)                            8028.98360699436 	(obj:0)
STE(6,86)                            9345.19769287158 	(obj:0)
STE(6,87)                            6037.56201183017 	(obj:0)
STE(6,88)                            7353.77609770735 	(obj:0)
STE(6,89)                            7695.81191072549 	(obj:0)
STE(6,90)                             9012.0259965962 	(obj:0)
STE(6,91)                            7695.81191072548 	(obj:0)
STE(6,92)                            9012.02599659618 	(obj:0)
STE(6,93)                            9354.06180960785 	(obj:0)
STE(6,94)                             10670.275895485 	(obj:0)
STE(6,95)                            4558.50020222881 	(obj:0)
STE(6,96)                            5874.71428809952 	(obj:0)
STE(6,97)                            6216.75010111766 	(obj:0)
STE(6,98)                            7532.96418698837 	(obj:0)
STE(6,99)                            6216.75010111763 	(obj:0)
STE(6,100)                           7532.96418698834 	(obj:0)
STE(6,101)                                       7875 	(obj:0)
STE(6,102)                           9191.21408587718 	(obj:0)
STE(6,103)                           5883.57840484232 	(obj:0)
STE(6,104)                           7199.79249071303 	(obj:0)
STE(6,105)                           7541.82830373117 	(obj:0)
STE(6,106)                           8858.04238960187 	(obj:0)
STE(6,107)                           7541.82830373115 	(obj:0)
STE(6,108)                           8858.04238960186 	(obj:0)
STE(6,109)                              9200.07820262 	(obj:0)
STE(6,110)                           10516.2922884907 	(obj:0)
STE(6,111)                           6037.56201183013 	(obj:0)
STE(6,112)                           7353.77609770728 	(obj:0)
STE(6,113)                            7695.8119107254 	(obj:0)
STE(6,114)                            9012.0259965961 	(obj:0)
STE(6,115)                            7695.8119107188 	(obj:0)
STE(6,116)                           9012.02599659611 	(obj:0)
STE(6,117)                           9354.06180961423 	(obj:0)
STE(6,118)                           10670.2758954849 	(obj:0)
STE(6,119)                           7362.64021444357 	(obj:0)
STE(6,120)                            8678.8543003208 	(obj:0)
STE(6,121)                           9020.89011333894 	(obj:0)
STE(6,122)                           10337.1041992096 	(obj:0)
STE(6,123)                           9020.89011333243 	(obj:0)
STE(6,124)                           10337.1041992096 	(obj:0)
STE(6,125)                           10679.1400122214 	(obj:0)
STE(6,126)                           11995.3540980985 	(obj:0)
y1(6,101)                        5.82986103836447e-009 	(obj:0)
y1(6,111)                        5.80607565024375e-009 	(obj:0)
y1(6,115)                        5.93718141317368e-009 	(obj:0)
y1(6,119)                        5.86570892537294e-009 	(obj:0)
y1(6,123)                        5.82986103836447e-009 	(obj:0)
y1(6,125)                        5.76352906200131e-009 	(obj:0)
BG(5)                                723.522421037851 	(obj:10)
WB(1)                                512.205738073297 	(obj:0)
AVE(1)                               3259.55177567504 	(obj:0)
AVE(2)                               3259.55588804169 	(obj:0)
WB(3)                                3579.36165209166 	(obj:0)
AVE(3)                               3579.36165209166 	(obj:0)
AVE(4)                               3579.36576445831 	(obj:0)
AVE(5)                               3472.77007794174 	(obj:0)
WB(6)                                372.951956285302 	(obj:0)
AVE(6)                                3046.3618950668 	(obj:0)
WG(1)                                2747.34603760174 	(obj:10)
WG(2)                                3259.55588804169 	(obj:10)
WG(4)                                3579.36576445831 	(obj:10)
WG(5)                                3472.77007794174 	(obj:10)
WG(6)                                 2673.4099387815 	(obj:10)
BG(2)                                772.176120781839 	(obj:10)
BG(3)                                2747.34603760167 	(obj:10)
BG(4)                                616.926734521282 	(obj:10)
y1(1,1)                                72.45737684967 	(obj:0)
y1(2,3)                              1331.15562864706 	(obj:0)
y1(2,5)                              1331.15562864706 	(obj:0)
y1(3,7)                              72.4573768496002 	(obj:0)
y1(3,9)                              72.4573768496002 	(obj:0)
y1(3,11)                             72.4573768495994 	(obj:0)
y1(3,13)                             72.4573768496002 	(obj:0)
y1(4,15)                             1492.42490899994 	(obj:0)
y1(4,17)                             1492.42490899994 	(obj:0)
y1(4,19)                             1492.42490899994 	(obj:0)
y1(4,21)                             1492.42490899994 	(obj:0)
y1(4,23)                             1492.42490899994 	(obj:0)
y1(4,25)                             1492.42490899994 	(obj:0)
y1(4,27)                             1492.42490899994 	(obj:0)
y1(4,29)                             1492.42490899994 	(obj:0)
y1(5,31)                             1492.42490899996 	(obj:0)
y1(5,33)                             1492.42490899996 	(obj:0)
y1(5,35)                             1492.42490899996 	(obj:0)
y1(5,37)                             1492.42490899996 	(obj:0)
y1(5,39)                             1492.42490899996 	(obj:0)
y1(5,41)                             1492.42490899996 	(obj:0)
y1(5,43)                             1492.42490899996 	(obj:0)
y1(5,45)                             1492.42490899996 	(obj:0)
y1(5,47)                             1492.42490899996 	(obj:0)
y1(5,49)                             1492.42490899996 	(obj:0)
y1(5,51)                             1492.42490899996 	(obj:0)
y1(5,53)                             1492.42490899996 	(obj:0)
y1(5,55)                             1492.42490899996 	(obj:0)
y1(5,57)                             1492.42490899996 	(obj:0)
y1(5,59)                             1492.42490899996 	(obj:0)
y1(5,61)                             1492.42490899996 	(obj:0)
y1(6,63)                         5.85267951821133e-009 	(obj:0)
y1(6,65)                         5.82986103836447e-009 	(obj:0)
y1(6,75)                         5.82986103836447e-009 	(obj:0)
y1(6,77)                         5.8300793170929e-009 	(obj:0)
y1(6,83)                         5.80607565024375e-009 	(obj:0)
y1(6,85)                         5.86570892537294e-009 	(obj:0)
y1(6,87)                         5.82986103836447e-009 	(obj:0)
y1(6,93)                         5.82986103836447e-009 	(obj:0)
y2(1,2)                               1310.0736906462 	(obj:0)
y2(3,8)                              1310.07369064627 	(obj:0)
y2(3,10)                             1310.07369064627 	(obj:0)
y2(3,12)                             1310.07369064627 	(obj:0)
y2(3,14)                             1310.07369064627 	(obj:0)
y2(6,64)                             1385.48851144285 	(obj:0)
y2(6,66)                             1385.48851144285 	(obj:0)
y2(6,68)                             1385.48851144285 	(obj:0)
y2(6,70)                             1385.48851144285 	(obj:0)
y2(6,72)                             1385.48851144285 	(obj:0)
y2(6,74)                             1385.48851144285 	(obj:0)
y2(6,76)                             1385.48851144285 	(obj:0)
y2(6,78)                             1385.48851144285 	(obj:0)
y2(6,80)                             1385.48851144285 	(obj:0)
y2(6,82)                             1385.48851144285 	(obj:0)
y2(6,84)                             1385.48851144285 	(obj:0)
y2(6,86)                             1385.48851144285 	(obj:0)
y2(6,88)                             1385.48851144285 	(obj:0)
y2(6,90)                             1385.48851144285 	(obj:0)
y2(6,92)                             1385.48851144285 	(obj:0)
y2(6,94)                             1385.48851144285 	(obj:0)
y2(6,96)                             1385.48851144285 	(obj:0)
y2(6,98)                             1385.48851144285 	(obj:0)
